<number of tasks>
250

<cycle time>
1000

<order strength>
0.596


<task times>
1 575
2 365
3 358
4 445
5 395
6 555
7 374
8 443
9 409
10 704
11 682
12 689
13 604
14 459
15 671
16 575
17 638
18 509
19 518
20 398
21 596
22 744
23 435
24 558
25 358
26 458
27 667
28 403
29 490
30 614
31 484
32 441
33 707
34 378
35 542
36 116
37 534
38 477
39 512
40 575
41 624
42 454
43 213
44 418
45 471
46 482
47 532
48 526
49 431
50 580
51 456
52 531
53 449
54 463
55 678
56 539
57 398
58 572
59 535
60 683
61 388
62 522
63 421
64 694
65 659
66 424
67 420
68 435
69 651
70 458
71 544
72 299
73 543
74 524
75 524
76 660
77 332
78 484
79 430
80 558
81 520
82 455
83 419
84 382
85 566
86 344
87 787
88 460
89 587
90 457
91 591
92 523
93 467
94 367
95 482
96 527
97 572
98 424
99 351
100 397
101 695
102 508
103 533
104 478
105 418
106 543
107 560
108 495
109 491
110 496
111 493
112 208
113 461
114 552
115 514
116 507
117 683
118 538
119 442
120 535
121 397
122 522
123 576
124 303
125 554
126 431
127 475
128 416
129 288
130 677
131 599
132 373
133 604
134 617
135 330
136 668
137 851
138 486
139 422
140 378
141 437
142 461
143 601
144 481
145 600
146 481
147 422
148 488
149 507
150 572
151 704
152 703
153 340
154 390
155 521
156 684
157 552
158 429
159 501
160 511
161 404
162 503
163 630
164 461
165 763
166 710
167 339
168 364
169 439
170 306
171 601
172 516
173 566
174 507
175 549
176 880
177 400
178 569
179 545
180 508
181 565
182 818
183 476
184 586
185 438
186 456
187 713
188 387
189 443
190 531
191 386
192 658
193 496
194 444
195 328
196 302
197 596
198 272
199 630
200 301
201 518
202 452
203 497
204 498
205 356
206 463
207 395
208 656
209 500
210 377
211 627
212 512
213 512
214 510
215 505
216 197
217 367
218 586
219 345
220 375
221 223
222 403
223 594
224 292
225 399
226 132
227 575
228 508
229 356
230 246
231 466
232 413
233 562
234 486
235 721
236 530
237 542
238 472
239 783
240 242
241 376
242 579
243 671
244 417
245 439
246 625
247 387
248 556
249 717
250 509

<precedence relations>
1,9
2,10
3,11
4,12
5,13
6,15
7,14
7,16
7,21
8,31
9,20
10,21
11,20
12,20
13,17
14,18
15,19
16,20
16,22
16,23
16,24
16,25
16,26
17,27
18,30
19,28
20,32
21,29
21,31
22,29
22,30
22,31
23,29
24,37
24,38
25,29
25,32
26,29
26,30
27,34
28,36
29,33
29,35
29,37
29,38
30,37
30,38
31,43
31,45
32,37
32,38
33,39
34,40
35,41
36,42
37,43
37,44
37,45
38,43
38,44
38,45
39,47
40,48
41,47
42,46
43,47
43,48
43,49
44,47
44,48
44,49
45,211
46,50
47,54
47,55
47,56
48,52
48,53
48,56
48,126
49,51
49,52
49,56
50,60
51,57
51,59
51,61
51,63
51,90
51,94
52,58
52,61
52,62
53,62
54,96
54,97
55,61
55,62
55,63
55,90
55,97
56,176
57,65
58,66
59,67
60,64
61,168
61,186
62,68
62,127
63,69
63,85
64,71
65,72
66,70
67,75
68,73
68,76
68,116
69,74
69,77
69,116
69,127
69,131
69,135
70,78
71,79
72,83
73,80
74,81
75,82
76,83
76,84
76,85
76,86
76,87
77,195
78,89
79,90
80,91
81,89
82,88
83,106
83,158
83,185
84,93
85,89
86,94
86,133
86,135
87,89
87,92
87,151
87,184
87,191
87,199
88,97
89,195
90,96
91,131
92,95
93,106
93,107
93,123
94,147
94,194
95,98
96,99
96,100
96,101
96,102
96,103
96,104
96,106
97,102
97,105
97,107
97,124
98,111
99,109
100,110
101,112
102,108
102,114
102,116
102,117
102,118
103,113
103,114
103,126
104,114
104,115
104,160
105,200
106,114
106,118
106,122
106,177
107,114
107,115
107,149
108,119
109,122
110,123
111,120
112,124
113,121
114,209
115,168
115,176
116,125
117,126
117,127
118,204
118,210
119,128
120,129
121,130
122,195
122,209
123,131
124,184
125,132
125,133
125,134
126,131
126,132
126,133
126,134
126,135
127,149
128,137
129,139
130,136
131,138
131,140
131,141
132,141
132,169
132,191
132,199
133,140
133,141
134,140
134,158
136,142
137,144
138,145
139,146
140,143
140,148
140,149
140,150
140,151
141,147
141,159
141,178
141,197
141,202
142,153
143,154
144,152
145,157
146,155
147,156
147,158
147,176
147,195
148,157
148,159
148,161
148,165
149,160
149,161
150,165
150,168
150,171
150,192
151,159
151,160
151,176
151,201
152,162
153,163
154,166
155,165
156,164
157,183
159,170
160,167
160,216
160,217
161,168
161,169
161,171
161,192
162,176
163,173
164,174
165,172
165,175
165,178
165,201
166,177
166,192
168,179
169,178
169,215
170,210
171,175
171,177
171,204
172,181
173,183
174,183
175,180
175,225
175,234
176,185
177,182
177,186
179,184
179,201
179,207
180,187
181,189
182,190
183,188
183,193
183,204
184,194
185,192
185,216
186,191
186,193
186,195
187,197
188,196
189,197
190,199
191,197
191,198
191,200
191,202
192,200
193,198
194,197
194,204
195,201
195,203
195,210
196,207
197,206
198,205
198,210
198,211
198,219
199,206
199,208
199,215
200,206
200,209
201,206
202,208
202,210
202,218
203,206
203,207
204,209
204,216
205,213
206,212
206,242
206,243
206,244
208,214
208,216
208,219
209,217
210,216
211,215
211,217
211,218
212,220
213,222
214,221
215,224
215,225
216,223
216,224
216,226
216,227
217,223
218,226
219,226
219,234
220,228
221,230
222,231
223,229
223,233
224,234
224,242
227,232
227,235
228,237
229,236
230,240
231,238
232,239
232,241
232,242
232,243
233,242
235,244
236,249
237,245
238,246
239,247
240,248
243,250

<end>
